54
8
0 8 9 11 12 13 15 17 22 23 25 26 27 28 29 30 33 34 38 39 40 41 43 47 51
1 8 9 11 12 13 17 19 22 23 26 27 28 29 30 34 36 38 39 40 41 47 49 51 52 53
2 8 11 12 19 20 23 24 25 29 30 31 34 36 38 41 43 47 48 49 51
3 10 17 23 25 26 30 31 33 34 35 38 41 42 45
4 9 13 15 16 20 25 26 29 31 33 34 38 39 40 42 43 46 47 48 49 52
5 8 11 12 13 20 21 24 27 29 32 33 39 40 41 42 48 50 53
6 12 13 34 37 43 44 46
7 9 14 18 32
